WARNING: for repeatability, setting FPU to use double precision
============================[ Problem Statistics ]=============================
|                                                                             |
|  Number of variables:          1000                                         |
|  Number of clauses:           51095                                         |
|  Parse time:                   0.01 s                                       |
|                                                                             |
c ============================[ Search Statistics ]==============================
c | Conflicts |          ORIGINAL         |          LEARNT          | Progress |
c |           |    Vars  Clauses Literals |    Limit  Clauses Lit/Cl |          |
c ===============================================================================
c Switched to VSIDS.
c Switched to LRB.
c Switched to VSIDS.
c Switched to LRB.
c Switched to VSIDS.
c Switched to LRB.
c Switched to VSIDS.
c Switched to LRB.
c Switched to VSIDS.
c Switched to LRB.
c Switched to VSIDS.
c Switched to LRB.
c Switched to VSIDS.
c Switched to LRB.
c ===============================================================================
restarts                  : 95112
conflicts                 : 18206320       (5173 /sec)
decisions                 : 40024171       (0.00 % random) (11372 /sec)
propagations              : 1002181595     (284755 /sec)
conflict literals         : 5629972474     (9.72 % deleted)

conflicts w/ DIP found    : 11207559       (61.56 % of conflicts)
conflicts w/ dangerous DIP: 0              (0.00 % of conflicts)
conflicts w/ DIP-learning : 5281           (0.03 % of conflicts)
decisions on ext vars     : 279            (0.00 % of decisions)
total ext vars            : 845         
tried delete ext vars     : 28          
deleted ext vars          : 28          
max ext vars              : 817         

Memory used               : 444.00 MB
CPU time                  : 3519.46 s
DIP computation time      : 97.4952 s (2.77 % of total time)
ER_sel time               : 35.2955 s
ER_add time               : 0.005177 s
ER_delC time              : 0 s
ER_delV time              : 0.047747 s
ER_sub time               : 38.711 s
ER_stat time              : 0 s

INDETERMINATE
